p cnf 120 422
3 -1 0
3 2 0
1 -2 -3 0
-4 5 -6 0
4 -5 -6 0
-4 -5 6 0
4 5 6 0
7 -3 0
7 -6 0
3 6 -7 0
8 7 0
8 3 0
-7 -3 -8 0
9 10 -11 0
-9 -10 -11 0
9 -10 11 0
-9 10 11 0
-11 3 -12 0
11 -3 -12 0
-11 -3 12 0
11 3 12 0
13 8 0
13 -12 0
-8 12 -13 0
5 7 -14 0
-5 -7 -14 0
5 -7 14 0
-5 7 14 0
16 -14 0
16 15 0
14 -15 -16 0
-18 -17 0
-18 -3 0
17 3 18 0
19 -18 0
19 -14 0
18 14 -19 0
21 -20 0
21 10 0
20 -10 -21 0
-22 -7 0
-22 -21 0
7 21 22 0
23 -19 0
23 -22 0
19 22 -23 0
-24 5 0
-24 20 0
-5 -20 24 0
20 -24 -25 0
-20 24 -25 0
20 24 25 0
-20 -24 25 0
26 23 0
26 25 0
-23 -25 -26 0
27 -16 0
27 -26 0
16 26 -27 0
14 2 -28 0
-14 -2 -28 0
14 -2 28 0
-14 2 28 0
31 -29 0
31 30 0
29 -30 -31 0
4 32 0
-4 32 0
-34 -20 0
-34 33 0
20 -33 34 0
-35 -34 0
-35 34 0
-36 32 0
-36 -35 0
-32 35 36 0
31 -36 -37 0
-31 36 -37 0
31 36 37 0
-31 -36 37 0
-38 -28 0
-38 -37 0
28 37 38 0
-39 -27 0
-39 -38 0
27 38 39 0
-40 13 0
-40 -39 0
-13 39 40 0
-41 -24 0
-41 -9 0
24 9 41 0
42 -34 0
42 41 0
34 -41 -42 0
-42 -18 -43 0
42 18 -43 0
-42 18 43 0
42 -18 43 0
21 -44 0
-21 -44 0
-42 45 -46 0
42 -45 -46 0
-42 -45 46 0
42 45 46 0
47 17 0
47 46 0
-17 -46 -47 0
-48 -44 0
-48 -47 0
44 47 48 0
43 -48 -49 0
-43 48 -49 0
43 48 49 0
-43 -48 49 0
3 -15 -50 0
-3 15 -50 0
3 15 50 0
-3 -15 50 0
-51 -49 0
-51 -50 0
49 50 51 0
-52 20 0
-52 20 0
-20 52 0
52 45 -53 0
-52 -45 -53 0
52 -45 53 0
-52 45 53 0
44 3 -54 0
-44 -3 -54 0
44 -3 54 0
-44 3 54 0
55 -53 0
55 54 0
53 -54 -55 0
-51 -55 -56 0
51 55 -56 0
-51 55 56 0
51 -55 56 0
33 10 -57 0
-33 -10 -57 0
33 -10 57 0
-33 10 57 0
-56 57 -58 0
56 -57 -58 0
-56 -57 58 0
56 57 58 0
59 -40 0
59 58 0
40 -58 -59 0
-60 29 0
-60 -15 0
-29 15 60 0
-61 7 0
-61 -15 0
-7 15 61 0
-62 -61 0
-62 44 0
61 -44 62 0
-9 -17 -63 0
9 17 -63 0
-9 17 63 0
9 -17 63 0
19 31 -64 0
-19 -31 -64 0
19 -31 64 0
-19 31 64 0
19 -64 -65 0
-19 64 -65 0
19 64 65 0
-19 -64 65 0
-63 65 -66 0
63 -65 -66 0
-63 -65 66 0
63 65 66 0
67 62 0
67 66 0
-62 -66 -67 0
-68 -35 0
-68 -30 0
35 30 68 0
69 -68 0
69 -42 0
68 42 -69 0
-70 67 0
-70 -69 0
-67 69 70 0
-71 -60 0
-71 70 0
60 -70 71 0
-72 24 0
-72 9 0
-24 -9 72 0
73 32 0
73 72 0
-32 -72 -73 0
74 -5 0
74 18 0
5 -18 -74 0
-75 31 0
-75 -74 0
-31 74 75 0
-76 73 0
-76 -75 0
-73 75 76 0
-30 35 -77 0
30 -35 -77 0
-30 -35 77 0
30 35 77 0
78 -4 0
78 9 0
4 -9 -78 0
-61 78 -79 0
61 -78 -79 0
-61 -78 79 0
61 78 79 0
80 77 0
80 79 0
-77 -79 -80 0
76 -80 -81 0
-76 80 -81 0
76 80 81 0
-76 -80 81 0
-82 -71 0
-82 81 0
71 -81 82 0
-83 -31 0
-83 -35 0
31 35 83 0
84 82 0
84 83 0
-82 -83 -84 0
85 -34 0
85 -9 0
34 9 -85 0
-86 -84 0
-86 -85 0
84 85 86 0
-11 -6 -87 0
11 6 -87 0
-11 6 87 0
11 -6 87 0
87 -63 -88 0
-87 63 -88 0
87 63 88 0
-87 -63 88 0
-89 -86 0
-89 -88 0
86 88 89 0
-90 59 0
-90 -89 0
-59 89 90 0
32 41 -91 0
-32 -41 -91 0
32 -41 91 0
-32 41 91 0
92 11 0
92 -33 0
-11 33 -92 0
-92 -2 -93 0
92 2 -93 0
-92 2 93 0
92 -2 93 0
94 91 0
94 -93 0
-91 93 -94 0
-95 3 0
-95 -30 0
-3 30 95 0
-95 30 -96 0
95 -30 -96 0
-95 -30 96 0
95 30 96 0
97 -30 0
97 22 0
30 -22 -97 0
-96 97 -98 0
96 -97 -98 0
-96 -97 98 0
96 97 98 0
-99 17 0
-99 -11 0
-17 11 99 0
-100 -98 0
-100 99 0
98 -99 100 0
101 -9 0
101 18 0
9 -18 -101 0
102 14 0
102 -101 0
-14 101 -102 0
-18 -61 -103 0
18 61 -103 0
-18 61 103 0
18 -61 103 0
-104 -72 0
-104 103 0
72 -103 104 0
105 102 0
105 104 0
-102 -104 -105 0
-100 -105 -106 0
100 105 -106 0
-100 105 106 0
100 -105 106 0
107 14 0
107 14 0
-14 -107 0
1 32 -108 0
-1 -32 -108 0
1 -32 108 0
-1 32 108 0
109 -107 0
109 -108 0
107 108 -109 0
110 106 0
110 109 0
-106 -109 -110 0
-2 -11 -111 0
2 11 -111 0
-2 11 111 0
2 -11 111 0
112 21 0
112 111 0
-21 -111 -112 0
20 -112 -113 0
-20 112 -113 0
20 112 113 0
-20 -112 113 0
-115 -113 0
-115 -114 0
113 114 115 0
116 110 0
116 -115 0
-110 115 -116 0
117 -94 0
117 116 0
94 -116 -117 0
90 -117 -118 0
-90 117 -118 0
90 117 118 0
-90 -117 118 0
5 45 -119 0
-5 -45 -119 0
5 -45 119 0
-5 45 119 0
-120 -118 0
-120 119 0
118 -119 120 0
110 -103 -17 -31 0
101 -83 96 -39 0
60 7 61 0
-104 110 0
67 116 0
28 4 0
-100 -2 32 -49 -59 0
-71 45 -70 -113 0
100 -72 -3 -103 -7 -24 0
-5 -32 116 -101 0
-95 -5 0
-75 52 14 0
-58 -113 39 25 103 -98 0
47 70 -88 -63 0
-27 -83 -36 70 -37 -17 0
-42 -16 82 49 110 0
102 32 -98 20 0
-80 59 118 -61 0
-96 -21 41 0
3 -54 -15 0
62 -23 119 0
12 -83 -39 -93 0
-43 -118 4 10 57 0
1 -112 0
-107 30 -76 -89 -73 0
21 -1 -100 118 -36 -107 0
15 -30 -6 -20 0
31 79 -93 28 -111 99 0
-53 87 72 79 0
92 -70 42 0
105 -6 0
3 -27 38 26 -61 32 0
2 92 -107 0
-74 105 91 -20 -86 0
102 81 0
34 -86 0
-1 35 37 0
-75 -82 -33 102 -101 0
-78 -111 -96 50 -29 0
-104 61 -18 -39 -9 -68 0
-68 -81 -40 31 0
-70 -36 2 73 0
-65 -34 -112 -78 0
-91 116 -45 46 0
-87 -113 -66 0
107 -38 -114 0
-112 -33 0
9 -71 0
-4 -65 -83 59 5 109 0
-42 -41 65 -44 0
9 -70 0
-27 33 73 120 -21 0
-83 18 106 64 -8 0
11 -86 -60 39 -16 0
80 -75 -19 0
-15 93 0
-7 24 -6 -120 96 -61 0
-91 -74 -87 7 -44 0
78 3 -38 -19 -98 0
-107 -60 -83 0
-87 -61 56 24 0
-113 -120 -27 -70 0
24 66 -10 -32 0
96 76 -51 0
9 34 -48 52 62 0
69 -66 0
-3 -32 -54 0
114 -5 0
76 -80 0
70 31 -4 -33 -8 0
120 0
